Route #1: 36
Route #2: 8 21 12 32 10 5
Route #3: 4 7 42 31 26 14 46
Route #4: 25 41
Route #5: 37 3 17 34 33 20
Route #6: 30 22 19 27 13 54 23 50
Route #7: 29 18 48 44 24 52 28
Route #8: 35 9 49 39 47 16 40
Route #9: 53 38
Route #10: 6 45 1 43
Route #11: 2 51 11 15
cost: 1201.3756239800462
